c uprop, v00.0, 
c reading from data/prog85.c.cnf
c done reading: 0.00437
p cnf 127 433
-75 -79 0
-79 -81 0
75 79 81 0
75 81 -87 0
-75 -81 -87 0
-75 81 87 0
75 -81 87 0
79 -89 0
-89 -91 0
-79 89 91 0
-79 91 -96 0
79 -91 -96 0
79 91 96 0
-79 -91 96 0
89 -100 0
-89 100 0
-89 -104 0
89 104 0
100 -107 0
-100 107 0
-77 -100 0
77 100 0
-83 107 0
83 -107 0
-93 -107 0
93 107 0
-71 83 0
71 -83 0
-68 -83 0
68 83 0
-65 71 0
65 -71 0
-62 -71 0
62 71 0
-59 91 0
-59 75 0
59 -75 -91 0
-57 -75 -91 0
-57 75 91 0
57 75 -91 0
57 -75 91 0
55 -59 -81 0
-55 81 0
-55 59 0
-55 59 81 0
-53 -55 0
-53 -55 81 0
-53 -55 59 0
53 55 -81 0
53 55 -59 0
-53 59 81 0
51 -55 -91 0
-51 91 0
-51 55 0
-51 55 91 0
-49 -51 0
-49 -51 91 0
-49 -51 55 0
49 51 -91 0
49 51 -55 0
-49 55 91 0
47 -51 0
-47 51 0
53 -86 0
75 -86 0
-53 -75 86 0
-53 -75 -88 0
53 75 -88 0
-53 75 88 0
53 -75 88 0
-49 -81 95 0
-49 -86 95 0
-81 -86 95 0
49 81 -95 0
49 86 -95 0
81 86 -95 0
49 -95 -99 0
81 -95 -99 0
86 -95 -99 0
-49 95 99 0
-81 95 99 0
-86 95 99 0
-49 -81 -86 99 0
49 81 86 -99 0
-47 -91 103 0
-47 -95 103 0
-91 -95 103 0
47 91 -103 0
47 95 -103 0
91 95 -103 0
47 -103 -110 0
91 -103 -110 0
95 -103 -110 0
-47 103 110 0
-91 103 110 0
-95 103 110 0
-47 -91 -95 110 0
47 91 95 -110 0
-103 112 0
103 -112 0
99 -114 0
75 -114 0
-75 -99 114 0
-75 -99 -116 0
75 99 -116 0
75 -99 116 0
-75 99 116 0
-81 -110 118 0
-110 -114 118 0
-81 -114 118 0
81 110 -118 0
110 114 -118 0
81 114 -118 0
110 -118 -120 0
81 -118 -120 0
114 -118 -120 0
-110 118 120 0
-81 118 120 0
-114 118 120 0
-81 -110 -114 120 0
81 110 114 -120 0
-91 -112 0
-112 -118 0
-91 -118 0
-112 122 0
-91 122 0
-118 122 0
-91 -112 -118 122 0
91 112 118 -122 0
-75 -98 0
-81 -98 0
75 81 98 0
75 81 -102 0
-75 -81 -102 0
-75 81 102 0
75 -81 102 0
98 -105 0
-57 -105 0
57 -98 105 0
57 -98 -109 0
-57 98 -109 0
57 98 109 0
-57 -98 109 0
-78 105 0
-78 -88 0
78 88 -105 0
-85 88 -105 0
-85 -88 105 0
85 88 105 0
85 -88 -105 0
78 -94 0
-94 -116 0
-78 94 116 0
-73 -78 116 0
-73 78 -116 0
73 78 116 0
73 -78 -116 0
-69 94 0
-69 -120 0
69 -94 120 0
-67 -94 120 0
-67 94 -120 0
67 94 120 0
67 -94 -120 0
-63 69 0
-63 -122 0
63 -69 122 0
-61 -69 122 0
-61 69 -122 0
61 69 122 0
61 -69 -122 0
-58 63 0
58 -63 0
-56 -63 0
56 63 0
-54 58 0
54 -58 0
-52 -58 0
52 58 0
-50 54 0
50 -54 0
-54 -123 0
54 123 0
-48 50 0
48 -50 0
-50 -124 0
50 124 0
48 -125 0
-48 125 0
-48 -126 0
48 126 0
125 -127 0
-125 127 0
-46 -125 0
46 125 0
-44 -45 0
44 45 0
-43 45 0
43 -45 0
-42 44 0
-41 -42 0
41 42 -44 0
-39 41 -44 0
-39 -41 44 0
39 41 44 0
39 -41 -44 0
-38 42 0
38 -42 0
-37 -42 0
37 42 0
-36 38 0
36 -38 0
-35 -38 0
35 38 0
-34 36 0
34 -36 0
-36 -74 0
36 74 0
34 -80 0
-34 80 0
-34 -90 0
34 90 0
-33 80 0
33 -80 0
-32 -80 0
32 80 0
-31 41 0
31 -41 0
30 -45 0
-30 45 0
40 -41 0
-40 41 0
-29 30 0
29 -30 0
28 -40 -45 0
-28 40 45 0
-28 40 0
-28 45 0
-27 -28 40 0
-27 -28 45 0
-27 -28 0
27 28 -40 0
27 28 -45 0
-27 40 45 0
26 -28 -41 0
-26 41 0
-26 28 0
-26 28 41 0
-25 -26 0
-25 -26 41 0
-25 -26 28 0
25 26 -41 0
25 26 -28 0
-25 28 41 0
24 -26 0
-24 26 0
27 -106 0
-27 106 0
-25 -45 76 0
25 45 -76 0
25 -76 0
45 -76 0
25 -76 -82 0
45 -76 -82 0
-76 -82 0
-25 76 82 0
-45 76 82 0
25 45 -82 0
-24 -41 92 0
-24 -76 92 0
-41 -76 92 0
24 41 -92 0
24 76 -92 0
41 76 -92 0
24 -70 -92 0
41 -70 -92 0
-70 76 -92 0
-24 70 92 0
-41 70 92 0
70 -76 92 0
-24 -41 70 -76 0
24 41 -70 76 0
64 -92 0
-64 92 0
-23 82 0
23 -82 0
22 -45 -70 0
-22 45 70 0
-22 70 0
-22 45 0
-21 -22 70 0
-21 -22 45 0
-21 -22 0
21 22 -70 0
21 22 -45 0
-21 45 70 0
-41 -64 0
-22 -64 0
-22 -41 0
20 -64 0
20 -41 0
20 -22 0
20 -22 -41 -64 0
-20 22 41 64 0
-45 -111 0
45 111 0
-19 45 0
19 -45 0
-18 111 0
-18 -31 0
18 31 -111 0
-17 31 -111 0
-17 -31 111 0
17 31 111 0
17 -31 -111 0
-16 18 0
-16 -29 0
16 -18 29 0
-15 -18 29 0
-15 18 -29 0
15 18 29 0
15 -18 -29 0
-14 16 0
-14 -106 0
14 -16 106 0
-13 -16 106 0
-13 16 -106 0
13 16 106 0
13 -16 -106 0
-12 14 0
-12 -23 0
12 -14 23 0
-14 23 -113 0
14 -23 -113 0
14 23 113 0
-14 -23 113 0
12 -115 0
-21 -115 0
-12 21 115 0
-12 21 -117 0
12 -21 -117 0
12 21 117 0
-12 -21 117 0
115 -119 0
-20 -119 0
20 -115 119 0
-11 20 -115 0
-11 -20 115 0
11 20 115 0
11 -20 -115 0
119 -121 0
-119 121 0
-10 -119 0
10 119 0
-9 121 0
9 -121 0
-8 -121 0
8 121 0
-7 9 0
7 -9 0
-6 -9 0
6 9 0
-5 7 0
5 -7 0
-4 -7 0
4 7 0
-3 5 0
3 -5 0
-2 -5 0
2 5 0
-1 3 0
1 -3 0
-3 -97 0
3 97 0
75 -101 0
45 -101 0
-45 -75 101 0
-45 -75 0
45 75 0
-31 -81 108 0
-81 -101 108 0
-31 -101 108 0
31 81 -108 0
81 101 -108 0
31 101 -108 0
-81 108 0
-31 108 0
-101 108 0
-31 -81 -101 0
-29 -57 84 0
-57 84 -108 0
-29 84 -108 0
29 57 -84 0
57 -84 108 0
29 -84 108 0
57 -84 0
29 -84 0
-84 108 0
29 57 108 0
72 -88 -106 0
72 -84 -88 0
72 -84 -106 0
-72 88 106 0
-72 84 88 0
-72 84 106 0
72 -88 0
72 -106 0
72 -84 0
-84 -88 -106 0
-23 66 -116 0
66 -72 -116 0
-23 66 -72 0
23 -66 116 0
-66 72 116 0
23 -66 72 0
66 -116 0
-23 66 0
66 -72 0
-23 -72 -116 0
-21 60 -120 0
60 -66 -120 0
-21 60 -66 0
21 -60 120 0
-60 66 120 0
21 -60 66 0
-60 120 0
21 -60 0
-60 66 0
21 66 120 0
-20 -122 0
-60 -122 0
-20 -60 0
20 60 122 0
